\ Model qknapsack
\ LP format - for model browsing. Use MPS format to capture full model detail.
Maximize
  6 x[0] + 2 x[2] + 21 x[7] + 100 y[0,2] + 32 y[0,8] + 36 y[1,6] + 20 y[2,4]
   + 68 y[2,5] + 78 y[3,6] + 92 y[4,9] + 6 y[5,6] + 98 y[8,9]
Subject To
 R0: 19 x[0] + 9 x[1] + 7 x[2] + 18 x[3] + 18 x[4] + 5 x[5] + 6 x[6]
   + 8 x[7] + 7 x[8] + 8 x[9] <= 63
 R1: - x[0] + y[0,1] <= 0
 R2: - x[0] + y[0,2] <= 0
 R3: - x[0] + y[0,3] <= 0
 R4: - x[0] + y[0,4] <= 0
 R5: - x[0] + y[0,5] <= 0
 R6: - x[0] + y[0,6] <= 0
 R7: - x[0] + y[0,7] <= 0
 R8: - x[0] + y[0,8] <= 0
 R9: - x[0] + y[0,9] <= 0
 R10: - x[1] + y[1,2] <= 0
 R11: - x[1] + y[1,3] <= 0
 R12: - x[1] + y[1,4] <= 0
 R13: - x[1] + y[1,5] <= 0
 R14: - x[1] + y[1,6] <= 0
 R15: - x[1] + y[1,7] <= 0
 R16: - x[1] + y[1,8] <= 0
 R17: - x[1] + y[1,9] <= 0
 R18: - x[2] + y[2,3] <= 0
 R19: - x[2] + y[2,4] <= 0
 R20: - x[2] + y[2,5] <= 0
 R21: - x[2] + y[2,6] <= 0
 R22: - x[2] + y[2,7] <= 0
 R23: - x[2] + y[2,8] <= 0
 R24: - x[2] + y[2,9] <= 0
 R25: - x[3] + y[3,4] <= 0
 R26: - x[3] + y[3,5] <= 0
 R27: - x[3] + y[3,6] <= 0
 R28: - x[3] + y[3,7] <= 0
 R29: - x[3] + y[3,8] <= 0
 R30: - x[3] + y[3,9] <= 0
 R31: - x[4] + y[4,5] <= 0
 R32: - x[4] + y[4,6] <= 0
 R33: - x[4] + y[4,7] <= 0
 R34: - x[4] + y[4,8] <= 0
 R35: - x[4] + y[4,9] <= 0
 R36: - x[5] + y[5,6] <= 0
 R37: - x[5] + y[5,7] <= 0
 R38: - x[5] + y[5,8] <= 0
 R39: - x[5] + y[5,9] <= 0
 R40: - x[6] + y[6,7] <= 0
 R41: - x[6] + y[6,8] <= 0
 R42: - x[6] + y[6,9] <= 0
 R43: - x[7] + y[7,8] <= 0
 R44: - x[7] + y[7,9] <= 0
 R45: - x[8] + y[8,9] <= 0
 R46: - x[1] + y[0,1] <= 0
 R47: - x[2] + y[0,2] <= 0
 R48: - x[3] + y[0,3] <= 0
 R49: - x[4] + y[0,4] <= 0
 R50: - x[5] + y[0,5] <= 0
 R51: - x[6] + y[0,6] <= 0
 R52: - x[7] + y[0,7] <= 0
 R53: - x[8] + y[0,8] <= 0
 R54: - x[9] + y[0,9] <= 0
 R55: - x[2] + y[1,2] <= 0
 R56: - x[3] + y[1,3] <= 0
 R57: - x[4] + y[1,4] <= 0
 R58: - x[5] + y[1,5] <= 0
 R59: - x[6] + y[1,6] <= 0
 R60: - x[7] + y[1,7] <= 0
 R61: - x[8] + y[1,8] <= 0
 R62: - x[9] + y[1,9] <= 0
 R63: - x[3] + y[2,3] <= 0
 R64: - x[4] + y[2,4] <= 0
 R65: - x[5] + y[2,5] <= 0
 R66: - x[6] + y[2,6] <= 0
 R67: - x[7] + y[2,7] <= 0
 R68: - x[8] + y[2,8] <= 0
 R69: - x[9] + y[2,9] <= 0
 R70: - x[4] + y[3,4] <= 0
 R71: - x[5] + y[3,5] <= 0
 R72: - x[6] + y[3,6] <= 0
 R73: - x[7] + y[3,7] <= 0
 R74: - x[8] + y[3,8] <= 0
 R75: - x[9] + y[3,9] <= 0
 R76: - x[5] + y[4,5] <= 0
 R77: - x[6] + y[4,6] <= 0
 R78: - x[7] + y[4,7] <= 0
 R79: - x[8] + y[4,8] <= 0
 R80: - x[9] + y[4,9] <= 0
 R81: - x[6] + y[5,6] <= 0
 R82: - x[7] + y[5,7] <= 0
 R83: - x[8] + y[5,8] <= 0
 R84: - x[9] + y[5,9] <= 0
 R85: - x[7] + y[6,7] <= 0
 R86: - x[8] + y[6,8] <= 0
 R87: - x[9] + y[6,9] <= 0
 R88: - x[8] + y[7,8] <= 0
 R89: - x[9] + y[7,9] <= 0
 R90: - x[9] + y[8,9] <= 0
 R91: x[0] + x[1] - y[0,1] <= 1
 R92: x[0] + x[2] - y[0,2] <= 1
 R93: x[0] + x[3] - y[0,3] <= 1
 R94: x[0] + x[4] - y[0,4] <= 1
 R95: x[0] + x[5] - y[0,5] <= 1
 R96: x[0] + x[6] - y[0,6] <= 1
 R97: x[0] + x[7] - y[0,7] <= 1
 R98: x[0] + x[8] - y[0,8] <= 1
 R99: x[0] + x[9] - y[0,9] <= 1
 R100: x[1] + x[2] - y[1,2] <= 1
 R101: x[1] + x[3] - y[1,3] <= 1
 R102: x[1] + x[4] - y[1,4] <= 1
 R103: x[1] + x[5] - y[1,5] <= 1
 R104: x[1] + x[6] - y[1,6] <= 1
 R105: x[1] + x[7] - y[1,7] <= 1
 R106: x[1] + x[8] - y[1,8] <= 1
 R107: x[1] + x[9] - y[1,9] <= 1
 R108: x[2] + x[3] - y[2,3] <= 1
 R109: x[2] + x[4] - y[2,4] <= 1
 R110: x[2] + x[5] - y[2,5] <= 1
 R111: x[2] + x[6] - y[2,6] <= 1
 R112: x[2] + x[7] - y[2,7] <= 1
 R113: x[2] + x[8] - y[2,8] <= 1
 R114: x[2] + x[9] - y[2,9] <= 1
 R115: x[3] + x[4] - y[3,4] <= 1
 R116: x[3] + x[5] - y[3,5] <= 1
 R117: x[3] + x[6] - y[3,6] <= 1
 R118: x[3] + x[7] - y[3,7] <= 1
 R119: x[3] + x[8] - y[3,8] <= 1
 R120: x[3] + x[9] - y[3,9] <= 1
 R121: x[4] + x[5] - y[4,5] <= 1
 R122: x[4] + x[6] - y[4,6] <= 1
 R123: x[4] + x[7] - y[4,7] <= 1
 R124: x[4] + x[8] - y[4,8] <= 1
 R125: x[4] + x[9] - y[4,9] <= 1
 R126: x[5] + x[6] - y[5,6] <= 1
 R127: x[5] + x[7] - y[5,7] <= 1
 R128: x[5] + x[8] - y[5,8] <= 1
 R129: x[5] + x[9] - y[5,9] <= 1
 R130: x[6] + x[7] - y[6,7] <= 1
 R131: x[6] + x[8] - y[6,8] <= 1
 R132: x[6] + x[9] - y[6,9] <= 1
 R133: x[7] + x[8] - y[7,8] <= 1
 R134: x[7] + x[9] - y[7,9] <= 1
 R135: x[8] + x[9] - y[8,9] <= 1
Bounds
Binaries
 x[0] x[1] x[2] x[3] x[4] x[5] x[6] x[7] x[8] x[9] y[0,1] y[0,2] y[0,3]
 y[0,4] y[0,5] y[0,6] y[0,7] y[0,8] y[0,9] y[1,2] y[1,3] y[1,4] y[1,5]
 y[1,6] y[1,7] y[1,8] y[1,9] y[2,3] y[2,4] y[2,5] y[2,6] y[2,7] y[2,8]
 y[2,9] y[3,4] y[3,5] y[3,6] y[3,7] y[3,8] y[3,9] y[4,5] y[4,6] y[4,7]
 y[4,8] y[4,9] y[5,6] y[5,7] y[5,8] y[5,9] y[6,7] y[6,8] y[6,9] y[7,8]
 y[7,9] y[8,9]
End
